c description: Random 5-CNF over 15 variables and 30 clauses
c generator: CNFgen (0.9.0)
c copyright: (C) 2012-2020 Massimo Lauria <massimo.lauria@uniroma1.it>
c url: https://massimolauria.net/cnfgen
c
p cnf 15 30
-1 -6 -7 8 13 0
-5 6 -10 -11 -14 0
3 -5 -6 -12 14 0
2 -5 10 13 -14 0
2 5 -6 -10 -14 0
4 5 10 -13 15 0
-2 -3 -4 -8 -13 0
-2 11 13 -14 15 0
1 2 13 -14 -15 0
2 5 -9 10 15 0
4 -7 -11 -13 15 0
-2 3 7 8 -12 0
-4 -7 8 12 -15 0
3 -5 -8 -9 -12 0
1 5 6 12 -15 0
-4 5 -8 12 15 0
-3 7 -9 -14 15 0
-2 11 12 -13 -14 0
2 5 -6 -8 13 0
-2 3 -5 10 14 0
2 6 -9 -12 -15 0
-5 11 -12 14 -15 0
-3 -10 11 13 -14 0
-4 6 7 11 -13 0
-1 2 -5 7 8 0
-5 6 -7 8 -15 0
-2 -7 -8 13 -14 0
-4 5 7 -8 -14 0
3 -4 10 12 15 0
-3 6 -9 10 -15 0